# Objective value = 78
WA1n 0
WA1p 0
WA2n 0
WA2p 1
WB1n 0
WB1p 1
WC1n 0
WC1p 1
WC2n 0
WC2p 1
WD1n 0
WD1p 2
WD2n 0
WD2p 1
WE1n 0
WE1p 4
WF1n 0
WF1p 4
WG1n 0
WG1p 6
WG2n 0
WG2p 1
WH1n 0
WH1p 10
WI1n 0
WI1p 10
WT1n 0
WT1p 30
WT2n 0
WT2p 1
5 7
a 0
b 1
c 1
d 1
e 1
f 1
g 1
h 1
i 1
j 1
k 1
l 1
m 1
n 1
o 1
